Minimize
  - 10 y_0 - 8 y_1 - 15 y_2 - 9 y_3 - 14 y_4 - 14 y_5 - 6 y_6 - 13 y_7
   - 15 y_9 - 7 y_10 - 18 y_11 - 11 y_12 - 13 y_13 - 12 y_14 - 8 y_15
   - 14 y_16 - 15 y_17 - 13 y_18 - 16 y_19 + 19 x_0_1 + 26 x_0_2 + 41 x_0_7
   + 41 x_0_8 + 71 x_0_9 + 59 x_0_10 + 24 x_0_12 + 61 x_0_17 + 45 x_1_2
   + 54 x_1_3 + 32 x_1_8 + 79 x_1_9 + 44 x_1_11 + 18 x_1_14 + 44 x_1_17
   + 73 x_1_18 + 52 x_2_3 + 84 x_2_6 + 23 x_2_12 + 58 x_2_13 + 57 x_2_14
   + 95 x_2_15 + 9 x_2_16 + 86 x_2_17 + 71 x_3_4 + 57 x_3_6 + 79 x_3_7
   + 37 x_3_8 + 76 x_3_13 + 72 x_3_14 + 53 x_3_16 + 96 x_3_19 + 55 x_4_5
   + 25 x_4_7 + 54 x_4_8 + 62 x_4_10 + 31 x_4_11 + 17 x_4_13 + 18 x_4_14
   + 86 x_4_15 + 34 x_4_16 + 89 x_4_18 + 39 x_4_19 + 31 x_5_7 + 34 x_5_10
   + 39 x_5_13 + 37 x_5_14 + 66 x_5_15 + 83 x_5_16 + 12 x_5_17 + 23 x_6_8
   + 90 x_6_11 + 66 x_6_12 + 78 x_6_16 + 70 x_6_18 + 105 x_7_9 + 8 x_7_13
   + 22 x_7_17 + 17 x_7_19 + 28 x_8_10 + 70 x_8_11 + 52 x_8_13 + 66 x_8_19
   + 49 x_9_12 + 97 x_9_14 + 72 x_9_16 + 8 x_9_18 + 69 x_10_12 + 51 x_10_13
   + 33 x_10_15 + 79 x_10_18 + 55 x_10_19 + 49 x_11_13 + 49 x_11_14
   + 104 x_11_15 + 17 x_11_16 + 59 x_12_13 + 56 x_12_14 + 24 x_12_16
   + 82 x_12_17 + 46 x_12_18 + 81 x_12_19 + 30 x_13_17 + 30 x_14_17
   + 25 x_14_19 + 91 x_15_16 + 75 x_15_17 + 63 x_15_18 + 87 x_15_19
   + 49 x_16_13 + 70 x_16_18 + 72 x_16_19 + 110 x_17_18 + 16 x_17_19
   + 114 x_18_19 + 231 Constant
Subject To
 c_0: y_16 = 1
 c_1_0: y_0 >= 1
 c_1_1: y_1 >= 1
 c_1_2: y_2 >= 1
 c_1_3: y_3 >= 1
 c_1_4: y_4 >= 1
 c_1_5: y_5 >= 1
 c_1_6: y_6 >= 1
 c_1_7: y_7 >= 1
 c_1_8: y_8 >= 1
 c_1_9: y_9 >= 1
 c_1_10: y_10 >= 1
 c_1_11: y_11 >= 1
 c_1_12: y_12 >= 1
 c_1_13: y_13 + y_14 >= 1
 c_1_14: y_13 + y_14 >= 1
 c_1_15: y_15 >= 1
 c_1_16: y_16 >= 1
 c_1_17: y_17 >= 1
 c_1_18: y_18 >= 1
 c_1_19: y_19 >= 1
 c_2_0: - 2 y_0 + x_0_1 + x_0_2 + x_0_7 + x_0_8 + x_0_9 + x_0_10 + x_0_12
   + x_0_17 = 0
 c_2_1: - 2 y_1 + x_0_1 + x_1_2 + x_1_3 + x_1_8 + x_1_9 + x_1_11 + x_1_14
   + x_1_17 + x_1_18 = 0
 c_2_2: - 2 y_2 + x_0_2 + x_1_2 + x_2_3 + x_2_6 + x_2_12 + x_2_13 + x_2_14
   + x_2_15 + x_2_16 + x_2_17 = 0
 c_2_3: - 2 y_3 + x_1_3 + x_2_3 + x_3_4 + x_3_6 + x_3_7 + x_3_8 + x_3_13
   + x_3_14 + x_3_16 + x_3_19 = 0
 c_2_4: - 2 y_4 + x_3_4 + x_4_5 + x_4_7 + x_4_8 + x_4_10 + x_4_11 + x_4_13
   + x_4_14 + x_4_15 + x_4_16 + x_4_18 + x_4_19 = 0
 c_2_5: - 2 y_5 + x_4_5 + x_5_7 + x_5_10 + x_5_13 + x_5_14 + x_5_15
   + x_5_16 + x_5_17 = 0
 c_2_6: - 2 y_6 + x_2_6 + x_3_6 + x_6_8 + x_6_11 + x_6_12 + x_6_16 + x_6_18
   = 0
 c_2_7: - 2 y_7 + x_0_7 + x_3_7 + x_4_7 + x_5_7 + x_7_9 + x_7_13 + x_7_17
   + x_7_19 = 0
 c_2_8: - 2 y_8 + x_0_8 + x_1_8 + x_3_8 + x_4_8 + x_6_8 + x_8_10 + x_8_11
   + x_8_13 + x_8_19 = 0
 c_2_9: - 2 y_9 + x_0_9 + x_1_9 + x_7_9 + x_9_12 + x_9_14 + x_9_16 + x_9_18
   = 0
 c_2_10: - 2 y_10 + x_0_10 + x_4_10 + x_5_10 + x_8_10 + x_10_12 + x_10_13
   + x_10_15 + x_10_18 + x_10_19 = 0
 c_2_11: - 2 y_11 + x_1_11 + x_4_11 + x_6_11 + x_8_11 + x_11_13 + x_11_14
   + x_11_15 + x_11_16 = 0
 c_2_12: - 2 y_12 + x_0_12 + x_2_12 + x_6_12 + x_9_12 + x_10_12 + x_12_13
   + x_12_14 + x_12_16 + x_12_17 + x_12_18 + x_12_19 = 0
 c_2_13: - 2 y_13 + x_2_13 + x_3_13 + x_4_13 + x_5_13 + x_7_13 + x_8_13
   + x_10_13 + x_11_13 + x_12_13 + x_13_17 + x_16_13 = 0
 c_2_14: - 2 y_14 + x_1_14 + x_2_14 + x_3_14 + x_4_14 + x_5_14 + x_9_14
   + x_11_14 + x_12_14 + x_14_17 + x_14_19 = 0
 c_2_15: - 2 y_15 + x_2_15 + x_4_15 + x_5_15 + x_10_15 + x_11_15 + x_15_16
   + x_15_17 + x_15_18 + x_15_19 = 0
 c_2_16: - 2 y_16 + x_2_16 + x_3_16 + x_4_16 + x_5_16 + x_6_16 + x_9_16
   + x_11_16 + x_12_16 + x_15_16 + x_16_13 + x_16_18 + x_16_19 = 0
 c_2_17: - 2 y_17 + x_0_17 + x_1_17 + x_2_17 + x_5_17 + x_7_17 + x_12_17
   + x_13_17 + x_14_17 + x_15_17 + x_17_18 + x_17_19 = 0
 c_2_18: - 2 y_18 + x_1_18 + x_4_18 + x_6_18 + x_9_18 + x_10_18 + x_12_18
   + x_15_18 + x_16_18 + x_17_18 + x_18_19 = 0
 c_2_19: - 2 y_19 + x_3_19 + x_4_19 + x_7_19 + x_8_19 + x_10_19 + x_12_19
   + x_14_19 + x_15_19 + x_16_19 + x_17_19 + x_18_19 = 0
Bounds
 Constant = 1
Binaries
 y_0 y_1 y_2 y_3 y_4 y_5 y_6 y_7 y_8 y_9 y_10 y_11 y_12 y_13 y_14 y_15 y_16
 y_17 y_18 y_19 x_0_1 x_0_2 x_0_7 x_0_8 x_0_9 x_0_10 x_0_12 x_0_17 x_1_2
 x_1_3 x_1_8 x_1_9 x_1_11 x_1_14 x_1_17 x_1_18 x_2_3 x_2_6 x_2_12 x_2_13
 x_2_14 x_2_15 x_2_16 x_2_17 x_3_4 x_3_6 x_3_7 x_3_8 x_3_13 x_3_14 x_3_16
 x_3_19 x_4_5 x_4_7 x_4_8 x_4_10 x_4_11 x_4_13 x_4_14 x_4_15 x_4_16 x_4_18
 x_4_19 x_5_7 x_5_10 x_5_13 x_5_14 x_5_15 x_5_16 x_5_17 x_6_8 x_6_11 x_6_12
 x_6_16 x_6_18 x_7_9 x_7_13 x_7_17 x_7_19 x_8_10 x_8_11 x_8_13 x_8_19
 x_9_12 x_9_14 x_9_16 x_9_18 x_10_12 x_10_13 x_10_15 x_10_18 x_10_19
 x_11_13 x_11_14 x_11_15 x_11_16 x_12_13 x_12_14 x_12_16 x_12_17 x_12_18
 x_12_19 x_13_17 x_14_17 x_14_19 x_15_16 x_15_17 x_15_18 x_15_19 x_16_13
 x_16_18 x_16_19 x_17_18 x_17_19 x_18_19
End
